
(set-logic ALL) 

(declare-datatype MyList ((Nil) (Cons (head Real) (tail MyList)) )) 
(declare-fun l0 () MyList) 
(declare-fun l1 () MyList) 
(declare-fun l2 () MyList) 
(declare-fun l3 () MyList) 
(declare-fun i0 () Real) 
(declare-fun i1 () Real) 
(assert (or (= l0 Nil) (is-Nil l2)) )
(assert (and (is-Nil l0) (= l0 Nil) (is-Cons Nil) (= l0 l0)) )
(assert (is-Nil Nil) )
(assert (is-Cons Nil) )
(assert (or (= l3 l0) (= l0 Nil)) )
(assert (and (is-Nil l3) (is-Nil l1) (= l3 Nil) (is-Cons l3)) )
(assert (or (= l2 Nil) (= l1 Nil)) )
(assert (= l0 Nil) )
(check-sat)
